*MODEL, NAME=103_CONTACT_MORTAR_PARALLEL_BLOCKS_C3D8
*NODE, NSET=NALL
1,  0.0, 0.0,  -1.0
2,  1.0, 0.0,  -1.0
3,  1.0, 1.0,  -1.0
4,  0.0, 1.0,  -1.0
5,  0.0, 0.0,   0.0
6,  1.0, 0.0,   0.0
7,  1.0, 1.0,   0.0
8,  0.0, 1.0,   0.0
9,  0.0, 0.0,   0.5
10, 1.0, 0.0,   0.5
11, 1.0, 1.0,   0.5
12, 0.0, 1.0,   0.5
13, 0.0, 0.0, 100.5
14, 1.0, 0.0, 100.5
15, 1.0, 1.0, 100.5
16, 0.0, 1.0, 100.5

*ELEMENT, TYPE=C3D8, ELSET=LOWER_BLOCK
1, 1, 2, 3, 4, 5, 6, 7, 8
*ELEMENT, TYPE=C3D8, ELSET=UPPER_BLOCK
2, 9, 10, 11, 12, 13, 14, 15, 16

*NSET, NAME=LOWER_ALL
1, 2, 3, 4, 5, 6, 7, 8
*NSET, NAME=UPPER_ALL
9, 10, 11, 12, 13, 14, 15, 16
*NSET, NAME=UPPER_TOP
13, 14, 15, 16

*SURFACE, NAME=MASTER_FACE
1, 1, S2
*SURFACE, NAME=SLAVE_FACE
2, 2, S1

*MATERIAL, NAME=LINEAR
*ELASTIC, TYPE=ISOTROPIC
1000.0, 0.0
*SOLIDSECTION, ELSET=LOWER_BLOCK, MATERIAL=LINEAR
*SOLIDSECTION, ELSET=UPPER_BLOCK, MATERIAL=LINEAR

*CONTACT, MASTER=MASTER_FACE, SLAVE=SLAVE_FACE, PENALTY=1.0e5

*SUPPORT, SUPPORT_COLLECTOR=BC
LOWER_ALL, 0.0, 0.0, 0.0, NAN, NAN, NAN
UPPER_ALL, 0.0, 0.0, NAN, NAN, NAN, NAN
UPPER_TOP, NAN, NAN, -1.0, NAN, NAN, NAN

*LOADCASE, TYPE=NONLINEARSTATIC, NAME=MORTAR_BENCHMARK
*SUPPORTS
BC
*SOLVER, DEVICE=CPU, METHOD=DIRECT
*CONSTRAINTMETHOD, TYPE=NULLSPACE
*NONLINEAR, CONTROL=LOAD, INITIAL_INCREMENT=0.1, MINIMUM_INCREMENT=0.1, MAXIMUM_INCREMENT=0.1, MAX_INCREMENTS=10, ADAPTIVE=OFF, MAXITER=30, TOL=1e-10, REGULARIZE_ZERO_ROWS=ON
*END
