*MODEL, NAME=039_SHELL_UNIFORM_THERMAL_EXPANSION_S4_LINEAR
*NODE, NSET=NALL
1, 0, 0, 0
2, 500, 0, 0
3, 1000, 0, 0
4, 0, 500, 0
5, 500, 500, 0
6, 1000, 500, 0
*ELEMENT, TYPE=S4, ELSET=PANEL
1, 1, 2, 5, 4
2, 2, 3, 6, 5
*NSET, NAME=ROOT
1, 4
*MATERIAL, NAME=STEEL
*ELASTIC, TYPE=ISOTROPIC
210000.0, 0.3
*THERMALEXPANSION
1.2e-5
*SHELLSECTION, ELSET=PANEL, MATERIAL=STEEL
5.0
*FIELD, NAME=TEMP, TYPE=NODE, COLS=1
1, 70.0
2, 70.0
3, 70.0
4, 70.0
5, 70.0
6, 70.0
*TLOAD, LOAD_COLLECTOR=THERMAL, TEMPERATUREFIELD=TEMP, REFERENCETEMPERATURE=20.0
*SUPPORT, SUPPORT_COLLECTOR=BC
ROOT, 0.0, 0.0, 0.0, 0.0, 0.0, 0.0
*LOADCASE, TYPE=LINEARSTATIC, NAME=THERMAL_EXPANSION
*SUPPORTS
BC
*LOADS
THERMAL
*SOLVER, DEVICE=CPU, METHOD=DIRECT
*CONSTRAINTMETHOD, TYPE=NULLSPACE
*END
